(define-fun-rec
  v4
  ((x Int) (y Int) (z Int)) Int (ite (<= x 0) z (v4 (- x 1) y z)))
(define-fun
  j4
  () Int (* 2 (* 2 (+ 2 2))))
(define-fun
  h4
  ((x Int)) Int x)
(define-fun
  g4
  ((x Int) (y Int)) Int y)
(define-fun
  g1
  ((x Int)) Int x)
(define-fun
  f4
  ((x Int) (y Int)) Int (+ 1 (* x y)))
(define-fun-rec
  u4
  ((x Int) (y Int) (z Int)) Int
  (ite (<= x 0) y (f4 (u4 (- x 1) y z) (v4 (- x 1) y z))))
(define-fun
  w4
  ((x Int)) Int (u4 x 0 j4))
(define-fun
  f3
  ((x Int)) Int (* x x))
(define-fun-rec
  u3
  ((x Int) (y Int)) Int (ite (<= x 0) y (f3 (u3 (- x 1) y))))
(define-fun
  v3
  ((x Int)) Int (u3 1 (w4 x)))
(define-fun
  f2
  ((x Int)) Int (* x x))
(define-fun-rec
  u2
  ((x Int) (y Int)) Int (ite (<= x 0) y (f2 (u2 (- x 1) y))))
(define-fun
  v2
  () Int (u2 2 2))
(define-fun
  f1
  ((x Int)) Int (+ 1 (* x v2)))
(define-fun-rec
  u1
  ((x Int) (y Int)) Int (ite (<= x 0) y (f1 (u1 (- x 1) y))))
(define-fun
  v1
  ((x Int)) Int (u1 x 0))
(define-fun
  f0
  ((x Int)) Int (* x x))
(define-fun-rec
  u0
  ((x Int) (y Int)) Int (ite (<= x 0) y (f0 (u0 (- x 1) y))))
(define-fun
  v0
  ((x Int)) Int (u0 1 (v1 x)))
(assert-not
  (forall ((c Int)) (or (not (>= c 0)) (= (v0 c) (v3 c)))))
